certificates/rado_a15_c173_N67.cnf
c Rad2 upper bound instance: x1 + 15*x2 - x3 = 173, interval [1,67]
p cnf 67 590
1 8 12 0
-1 -8 -12 0
1 13 23 0
-1 -13 -23 0
1 14 38 0
-1 -14 -38 0
1 15 53 0
-1 -15 -53 0
2 9 12 0
-2 -9 -12 0
2 13 24 0
-2 -13 -24 0
2 14 39 0
-2 -14 -39 0
2 15 54 0
-2 -15 -54 0
3 10 12 0
-3 -10 -12 0
3 13 25 0
-3 -13 -25 0
3 14 40 0
-3 -14 -40 0
3 15 55 0
-3 -15 -55 0
4 11 12 0
-4 -11 -12 0
4 13 26 0
-4 -13 -26 0
4 14 41 0
-4 -14 -41 0
4 15 56 0
-4 -15 -56 0
5 12 0
-5 -12 0
5 13 27 0
-5 -13 -27 0
5 14 42 0
-5 -14 -42 0
5 15 57 0
-5 -15 -57 0
6 12 13 0
-6 -12 -13 0
6 13 28 0
-6 -13 -28 0
6 14 43 0
-6 -14 -43 0
6 15 58 0
-6 -15 -58 0
7 12 14 0
-7 -12 -14 0
7 13 29 0
-7 -13 -29 0
7 14 44 0
-7 -14 -44 0
7 15 59 0
-7 -15 -59 0
8 12 15 0
-8 -12 -15 0
8 13 30 0
-8 -13 -30 0
8 14 45 0
-8 -14 -45 0
8 15 60 0
-8 -15 -60 0
1 9 11 0
-1 -9 -11 0
9 12 16 0
-9 -12 -16 0
9 13 31 0
-9 -13 -31 0
9 14 46 0
-9 -14 -46 0
9 15 61 0
-9 -15 -61 0
2 10 11 0
-2 -10 -11 0
10 12 17 0
-10 -12 -17 0
10 13 32 0
-10 -13 -32 0
10 14 47 0
-10 -14 -47 0
10 15 62 0
-10 -15 -62 0
3 11 0
-3 -11 0
11 12 18 0
-11 -12 -18 0
11 13 33 0
-11 -13 -33 0
11 14 48 0
-11 -14 -48 0
11 15 63 0
-11 -15 -63 0
12 19 0
-12 -19 0
12 13 34 0
-12 -13 -34 0
12 14 49 0
-12 -14 -49 0
12 15 64 0
-12 -15 -64 0
5 11 13 0
-5 -11 -13 0
12 13 20 0
-12 -13 -20 0
13 35 0
-13 -35 0
13 14 50 0
-13 -14 -50 0
13 15 65 0
-13 -15 -65 0
6 11 14 0
-6 -11 -14 0
12 14 21 0
-12 -14 -21 0
13 14 36 0
-13 -14 -36 0
14 51 0
-14 -51 0
14 15 66 0
-14 -15 -66 0
7 11 15 0
-7 -11 -15 0
12 15 22 0
-12 -15 -22 0
13 15 37 0
-13 -15 -37 0
14 15 52 0
-14 -15 -52 0
15 67 0
-15 -67 0
8 11 16 0
-8 -11 -16 0
12 16 23 0
-12 -16 -23 0
13 16 38 0
-13 -16 -38 0
14 16 53 0
-14 -16 -53 0
9 11 17 0
-9 -11 -17 0
12 17 24 0
-12 -17 -24 0
13 17 39 0
-13 -17 -39 0
14 17 54 0
-14 -17 -54 0
10 11 18 0
-10 -11 -18 0
12 18 25 0
-12 -18 -25 0
13 18 40 0
-13 -18 -40 0
14 18 55 0
-14 -18 -55 0
11 19 0
-11 -19 0
12 19 26 0
-12 -19 -26 0
13 19 41 0
-13 -19 -41 0
14 19 56 0
-14 -19 -56 0
11 12 20 0
-11 -12 -20 0
12 20 27 0
-12 -20 -27 0
13 20 42 0
-13 -20 -42 0
14 20 57 0
-14 -20 -57 0
11 13 21 0
-11 -13 -21 0
12 21 28 0
-12 -21 -28 0
13 21 43 0
-13 -21 -43 0
14 21 58 0
-14 -21 -58 0
11 14 22 0
-11 -14 -22 0
12 22 29 0
-12 -22 -29 0
13 22 44 0
-13 -22 -44 0
14 22 59 0
-14 -22 -59 0
11 15 23 0
-11 -15 -23 0
12 23 30 0
-12 -23 -30 0
13 23 45 0
-13 -23 -45 0
14 23 60 0
-14 -23 -60 0
1 10 24 0
-1 -10 -24 0
11 16 24 0
-11 -16 -24 0
12 24 31 0
-12 -24 -31 0
13 24 46 0
-13 -24 -46 0
14 24 61 0
-14 -24 -61 0
2 10 25 0
-2 -10 -25 0
11 17 25 0
-11 -17 -25 0
12 25 32 0
-12 -25 -32 0
13 25 47 0
-13 -25 -47 0
14 25 62 0
-14 -25 -62 0
3 10 26 0
-3 -10 -26 0
11 18 26 0
-11 -18 -26 0
12 26 33 0
-12 -26 -33 0
13 26 48 0
-13 -26 -48 0
14 26 63 0
-14 -26 -63 0
4 10 27 0
-4 -10 -27 0
11 19 27 0
-11 -19 -27 0
12 27 34 0
-12 -27 -34 0
13 27 49 0
-13 -27 -49 0
14 27 64 0
-14 -27 -64 0
5 10 28 0
-5 -10 -28 0
11 20 28 0
-11 -20 -28 0
12 28 35 0
-12 -28 -35 0
13 28 50 0
-13 -28 -50 0
14 28 65 0
-14 -28 -65 0
6 10 29 0
-6 -10 -29 0
11 21 29 0
-11 -21 -29 0
12 29 36 0
-12 -29 -36 0
13 29 51 0
-13 -29 -51 0
14 29 66 0
-14 -29 -66 0
7 10 30 0
-7 -10 -30 0
11 22 30 0
-11 -22 -30 0
12 30 37 0
-12 -30 -37 0
13 30 52 0
-13 -30 -52 0
14 30 67 0
-14 -30 -67 0
8 10 31 0
-8 -10 -31 0
11 23 31 0
-11 -23 -31 0
12 31 38 0
-12 -31 -38 0
13 31 53 0
-13 -31 -53 0
9 10 32 0
-9 -10 -32 0
11 24 32 0
-11 -24 -32 0
12 32 39 0
-12 -32 -39 0
13 32 54 0
-13 -32 -54 0
10 33 0
-10 -33 0
11 25 33 0
-11 -25 -33 0
12 33 40 0
-12 -33 -40 0
13 33 55 0
-13 -33 -55 0
10 11 34 0
-10 -11 -34 0
11 26 34 0
-11 -26 -34 0
12 34 41 0
-12 -34 -41 0
13 34 56 0
-13 -34 -56 0
10 12 35 0
-10 -12 -35 0
11 27 35 0
-11 -27 -35 0
12 35 42 0
-12 -35 -42 0
13 35 57 0
-13 -35 -57 0
10 13 36 0
-10 -13 -36 0
11 28 36 0
-11 -28 -36 0
12 36 43 0
-12 -36 -43 0
13 36 58 0
-13 -36 -58 0
10 14 37 0
-10 -14 -37 0
11 29 37 0
-11 -29 -37 0
12 37 44 0
-12 -37 -44 0
13 37 59 0
-13 -37 -59 0
10 15 38 0
-10 -15 -38 0
11 30 38 0
-11 -30 -38 0
12 38 45 0
-12 -38 -45 0
13 38 60 0
-13 -38 -60 0
1 9 39 0
-1 -9 -39 0
10 16 39 0
-10 -16 -39 0
11 31 39 0
-11 -31 -39 0
12 39 46 0
-12 -39 -46 0
13 39 61 0
-13 -39 -61 0
2 9 40 0
-2 -9 -40 0
10 17 40 0
-10 -17 -40 0
11 32 40 0
-11 -32 -40 0
12 40 47 0
-12 -40 -47 0
13 40 62 0
-13 -40 -62 0
3 9 41 0
-3 -9 -41 0
10 18 41 0
-10 -18 -41 0
11 33 41 0
-11 -33 -41 0
12 41 48 0
-12 -41 -48 0
13 41 63 0
-13 -41 -63 0
4 9 42 0
-4 -9 -42 0
10 19 42 0
-10 -19 -42 0
11 34 42 0
-11 -34 -42 0
12 42 49 0
-12 -42 -49 0
13 42 64 0
-13 -42 -64 0
5 9 43 0
-5 -9 -43 0
10 20 43 0
-10 -20 -43 0
11 35 43 0
-11 -35 -43 0
12 43 50 0
-12 -43 -50 0
13 43 65 0
-13 -43 -65 0
6 9 44 0
-6 -9 -44 0
10 21 44 0
-10 -21 -44 0
11 36 44 0
-11 -36 -44 0
12 44 51 0
-12 -44 -51 0
13 44 66 0
-13 -44 -66 0
7 9 45 0
-7 -9 -45 0
10 22 45 0
-10 -22 -45 0
11 37 45 0
-11 -37 -45 0
12 45 52 0
-12 -45 -52 0
13 45 67 0
-13 -45 -67 0
8 9 46 0
-8 -9 -46 0
10 23 46 0
-10 -23 -46 0
11 38 46 0
-11 -38 -46 0
12 46 53 0
-12 -46 -53 0
9 47 0
-9 -47 0
10 24 47 0
-10 -24 -47 0
11 39 47 0
-11 -39 -47 0
12 47 54 0
-12 -47 -54 0
9 10 48 0
-9 -10 -48 0
10 25 48 0
-10 -25 -48 0
11 40 48 0
-11 -40 -48 0
12 48 55 0
-12 -48 -55 0
9 11 49 0
-9 -11 -49 0
10 26 49 0
-10 -26 -49 0
11 41 49 0
-11 -41 -49 0
12 49 56 0
-12 -49 -56 0
9 12 50 0
-9 -12 -50 0
10 27 50 0
-10 -27 -50 0
11 42 50 0
-11 -42 -50 0
12 50 57 0
-12 -50 -57 0
9 13 51 0
-9 -13 -51 0
10 28 51 0
-10 -28 -51 0
11 43 51 0
-11 -43 -51 0
12 51 58 0
-12 -51 -58 0
9 14 52 0
-9 -14 -52 0
10 29 52 0
-10 -29 -52 0
11 44 52 0
-11 -44 -52 0
12 52 59 0
-12 -52 -59 0
9 15 53 0
-9 -15 -53 0
10 30 53 0
-10 -30 -53 0
11 45 53 0
-11 -45 -53 0
12 53 60 0
-12 -53 -60 0
1 8 54 0
-1 -8 -54 0
9 16 54 0
-9 -16 -54 0
10 31 54 0
-10 -31 -54 0
11 46 54 0
-11 -46 -54 0
12 54 61 0
-12 -54 -61 0
2 8 55 0
-2 -8 -55 0
9 17 55 0
-9 -17 -55 0
10 32 55 0
-10 -32 -55 0
11 47 55 0
-11 -47 -55 0
12 55 62 0
-12 -55 -62 0
3 8 56 0
-3 -8 -56 0
9 18 56 0
-9 -18 -56 0
10 33 56 0
-10 -33 -56 0
11 48 56 0
-11 -48 -56 0
12 56 63 0
-12 -56 -63 0
4 8 57 0
-4 -8 -57 0
9 19 57 0
-9 -19 -57 0
10 34 57 0
-10 -34 -57 0
11 49 57 0
-11 -49 -57 0
12 57 64 0
-12 -57 -64 0
5 8 58 0
-5 -8 -58 0
9 20 58 0
-9 -20 -58 0
10 35 58 0
-10 -35 -58 0
11 50 58 0
-11 -50 -58 0
12 58 65 0
-12 -58 -65 0
6 8 59 0
-6 -8 -59 0
9 21 59 0
-9 -21 -59 0
10 36 59 0
-10 -36 -59 0
11 51 59 0
-11 -51 -59 0
12 59 66 0
-12 -59 -66 0
7 8 60 0
-7 -8 -60 0
9 22 60 0
-9 -22 -60 0
10 37 60 0
-10 -37 -60 0
11 52 60 0
-11 -52 -60 0
12 60 67 0
-12 -60 -67 0
8 61 0
-8 -61 0
9 23 61 0
-9 -23 -61 0
10 38 61 0
-10 -38 -61 0
11 53 61 0
-11 -53 -61 0
8 9 62 0
-8 -9 -62 0
9 24 62 0
-9 -24 -62 0
10 39 62 0
-10 -39 -62 0
11 54 62 0
-11 -54 -62 0
8 10 63 0
-8 -10 -63 0
9 25 63 0
-9 -25 -63 0
10 40 63 0
-10 -40 -63 0
11 55 63 0
-11 -55 -63 0
8 11 64 0
-8 -11 -64 0
9 26 64 0
-9 -26 -64 0
10 41 64 0
-10 -41 -64 0
11 56 64 0
-11 -56 -64 0
8 12 65 0
-8 -12 -65 0
9 27 65 0
-9 -27 -65 0
10 42 65 0
-10 -42 -65 0
11 57 65 0
-11 -57 -65 0
8 13 66 0
-8 -13 -66 0
9 28 66 0
-9 -28 -66 0
10 43 66 0
-10 -43 -66 0
11 58 66 0
-11 -58 -66 0
8 14 67 0
-8 -14 -67 0
9 29 67 0
-9 -29 -67 0
10 44 67 0
-10 -44 -67 0
11 59 67 0
-11 -59 -67 0
