certificates/rado_a15_c173_N67.drat
8 -67 0
12 -67 0
-67 0
15 0
-12 0
5 0
19 0
60 0
-57 0
-11 0
-8 0
64 0
49 0
50 0
4 0
3 0
59 0
65 0
18 0
20 0
16 0
61 0
14 0
1 0
-56 0
-55 0
-7 0
-13 0
-9 0
-40 0
-41 0
-42 0
-51 0
-66 0
-52 0
-53 0
-22 0
-23 0
-24 0
-27 0
-28 0
-38 0
63 0
48 0
34 0
62 0
47 0
2 0
33 0
17 0
29 0
30 0
35 0
44 0
45 0
0
